(set-info :status unknown)
(declare-fun C () (_ BitVec 20))
(declare-fun %x () (_ BitVec 19))
(declare-fun |ana_WillNotOverflowSignedAdd(%x, trunc(C))| () (_ BitVec 1))
(declare-fun u_%sx () (_ BitVec 8))
(assert
 (let ((?x9119 ((_ sign_extend 1) (bvadd %x ((_ extract 18 0) C)))))
 (let (($x8612 (= |ana_WillNotOverflowSignedAdd(%x, trunc(C))| (_ bv1 1))))
 (let (($x4562 (=> $x8612 (= (bvadd ((_ sign_extend 1) %x) ((_ sign_extend 1) ((_ extract 18 0) C))) ?x9119))))
 (and $x4562 (= u_%sx (_ bv1 8)) $x8612 (= (bvand C (bvshl (_ bv1048575 20) (bvsub (_ bv19 20) (_ bv1 20)))) (_ bv0 20)) (and (distinct (bvadd ((_ sign_extend 1) %x) C) ?x9119) true))))))
(check-sat)
